DATASET = "thpack6";
INSTANCE = "057";

WIDTH = 233;
HEIGHT = 220;
LENGTH = 587;

NO_OF_SHAPES = 15;
size = [|
  85,73,40 |
  73,62,54 |
  90,63,41 |
  75,61,24 |
  57,53,44 |
  93,70,45 |
  73,36,33 |
  95,80,75 |
  93,89,78 |
  113,87,65 |
  72,46,30 |
  100,78,70 |
  53,47,34 |
  87,54,46 |
  52,41,37 |
|];

verticality = [|
  0,1,1 |
  1,1,1 |
  0,1,1 |
  0,0,1 |
  1,1,1 |
  0,1,1 |
  0,1,1 |
  1,1,1 |
  1,1,1 |
  1,1,1 |
  0,1,1 |
  1,1,1 |
  1,1,1 |
  1,1,1 |
  1,1,1 |
|];

box_count = [
  4,
  9,
  3,
  7,
  11,
  8,
  6,
  8,
  6,
  7,
  9,
  7,
  8,
  10,
  8,
];
